4 
5  20 35 46 
6  00 13 27 42 55 
7  10 25 40 55 
8  10 25 40 55 
9  10 25 40 55 
10  09 24 39 54 
11  09 24 39 54 
12  09 24 39 54 
13  09 24 39 54 
14  09 24 39 54 
15  09 24 39 54 
16  09 24 39 54 
17  09 24 39 54 
18  10 25 40 55 
19  10 26 41 56 
20  11 24 35 50 
21  05 20 35 50 
22  05 19 33 45 
23  00 15 
0 
